c Random generated cnf formula, satisfiable: true
p cnf 10 50
6 -7 9 0
7 -4 -9 0
9 -7 -2 0
1 -8 -6 0
8 4 3 0
1 7 6 0
3 -10 1 0
-6 -7 10 0
6 2 1 0
-1 6 8 0
4 7 2 0
-3 -9 -6 0
-4 8 3 0
4 6 7 0
-10 9 -4 0
-1 -7 4 0
-5 2 3 0
-3 -7 2 0
2 -1 -7 0
10 8 4 0
-3 -4 -6 0
6 -10 2 0
3 -2 -4 0
-7 -5 -10 0
-5 -1 4 0
-9 4 -8 0
1 -10 -9 0
6 10 -4 0
10 7 4 0
8 -1 -5 0
2 9 -7 0
5 -9 -8 0
-10 -9 8 0
-4 -8 6 0
-3 5 -6 0
-1 10 -5 0
2 -6 8 0
5 4 -9 0
-5 8 1 0
5 -7 -1 0
-5 -9 -1 0
5 3 10 0
2 -4 -5 0
-6 -7 -1 0
-6 10 -8 0
1 -10 -7 0
6 3 -2 0
-9 -2 4 0
-5 1 4 0
-10 -4 -2 0
